(set-info :smt-lib-version 2.6)
(set-logic QF_UFLRA)
(set-info :source |
MathSat group

|)
(set-info :category "random")
(set-info :status sat)
(declare-fun x0 () Real)
(declare-fun x1 () Real)
(declare-fun x2 () Real)
(declare-fun x3 () Real)
(declare-fun x4 () Real)
(declare-fun x5 () Real)
(declare-fun x6 () Real)
(declare-fun x7 () Real)
(declare-fun x8 () Real)
(declare-fun x9 () Real)
(declare-fun x10 () Real)
(declare-fun x11 () Real)
(declare-fun x12 () Real)
(declare-fun x13 () Real)
(declare-fun x14 () Real)
(declare-fun x15 () Real)
(declare-fun x16 () Real)
(declare-fun x17 () Real)
(declare-fun x18 () Real)
(declare-fun x19 () Real)
(declare-fun x20 () Real)
(declare-fun x21 () Real)
(declare-fun x22 () Real)
(declare-fun x23 () Real)
(declare-fun x24 () Real)
(declare-fun x25 () Real)
(declare-fun x26 () Real)
(declare-fun x27 () Real)
(declare-fun x28 () Real)
(declare-fun x29 () Real)
(declare-fun f0_1 (Real) Real)
(declare-fun f0_2 (Real Real) Real)
(declare-fun f0_3 (Real Real Real) Real)
(declare-fun f0_4 (Real Real Real Real) Real)
(declare-fun P0 () Bool)
(declare-fun P1 () Bool)
(declare-fun P2 () Bool)
(declare-fun P3 () Bool)
(declare-fun P4 () Bool)
(declare-fun P5 () Bool)
(declare-fun P6 () Bool)
(declare-fun P7 () Bool)
(declare-fun P8 () Bool)
(declare-fun P9 () Bool)
(declare-fun P10 () Bool)
(declare-fun P11 () Bool)
(declare-fun P12 () Bool)
(declare-fun P13 () Bool)
(declare-fun P14 () Bool)
(declare-fun P15 () Bool)
(declare-fun P16 () Bool)
(declare-fun P17 () Bool)
(declare-fun P18 () Bool)
(declare-fun P19 () Bool)
(declare-fun P20 () Bool)
(declare-fun P21 () Bool)
(declare-fun P22 () Bool)
(declare-fun P23 () Bool)
(declare-fun P24 () Bool)
(declare-fun P25 () Bool)
(declare-fun P26 () Bool)
(declare-fun P27 () Bool)
(declare-fun P28 () Bool)
(declare-fun P29 () Bool)
(assert (let ((?v_26 (* 14 x4)) (?v_13 (* 14 x6)) (?v_48 (< (+ (- (* 4 x9) (* 2 x13)) (* 29 x14)) 8))) (let ((?v_34 (< (- (- (* 2 x22) ?v_13) (* 31 x2)) 1)) (?v_68 (distinct x14 (f0_1 x14))) (?v_0 (f0_1 x2))) (let ((?v_90 (= x5 ?v_0)) (?v_119 (= x25 (f0_2 x4 x2))) (?v_37 (f0_1 x13))) (let ((?v_41 (= (f0_2 x18 x21) ?v_37)) (?v_19 (distinct (f0_1 x29) x1)) (?v_57 (= (f0_2 x3 x26) (f0_1 x28))) (?v_22 (f0_1 x20))) (let ((?v_9 (distinct (f0_2 x6 x19) ?v_22)) (?v_12 (= (f0_2 x6 x13) x21)) (?v_59 (= (f0_2 x0 x8) (f0_2 x21 x9))) (?v_20 (f0_1 x7))) (let ((?v_29 (= (f0_1 x11) ?v_20)) (?v_104 (distinct (f0_1 x18) x15)) (?v_93 (distinct (f0_2 x10 x24) (f0_1 x3))) (?v_148 (distinct x22 x2)) (?v_105 (= x13 x27)) (?v_30 (f0_1 x24))) (let ((?v_82 (= (f0_2 x25 x4) ?v_30)) (?v_101 (= (f0_2 x13 x2) (f0_2 x12 x2))) (?v_118 (distinct (f0_2 x16 x24) (f0_2 x9 x4))) (?v_155 (distinct x13 ?v_37)) (?v_122 (= x9 (f0_1 x15))) (?v_123 (distinct (f0_1 x17) (f0_2 x2 x10))) (?v_71 (distinct x18 (f0_2 x25 x12))) (?v_62 (= x2 x5)) (?v_4 (= (f0_2 x29 x27) ?v_20)) (?v_7 (= ?v_0 ?v_0)) (?v_76 (distinct x21 ?v_22)) (?v_61 (= x6 x14)) (?v_92 (distinct (f0_2 x11 x26) ?v_30)) (?v_17 (distinct x14 ?v_30)) (?v_70 (= (f0_2 x0 x19) x4)) (?v_74 (= x20 (f0_2 x18 x27))) (?v_107 (not P11)) (?v_72 (not P6)) (?v_2 (not P21)) (?v_84 (not P10)) (?v_50 (not P17))) (let ((?v_149 (not ?v_17)) (?v_3 (not P5)) (?v_85 (not P14)) (?v_31 (not P7)) (?v_16 (not ?v_148)) (?v_52 (not P8)) (?v_43 (not ?v_4)) (?v_39 (not ?v_90)) (?v_66 (not ?v_7)) (?v_80 (not P0)) (?v_115 (not P19)) (?v_75 (not P24)) (?v_79 (not ?v_118)) (?v_18 (not ?v_12)) (?v_15 (not P13)) (?v_81 (not P12)) (?v_36 (not ?v_29)) (?v_23 (not ?v_155)) (?v_111 (not ?v_59)) (?v_44 (not ?v_61)) (?v_120 (not P2)) (?v_60 (not ?v_92)) (?v_113 (not P26)) (?v_64 (not P9)) (?v_55 (not ?v_41)) (?v_86 (not ?v_122)) (?v_67 (not P16)) (?v_77 (not P15)) (?v_65 (not P23)) (?v_133 (not ?v_48)) (?v_98 (not ?v_62)) (?v_127 (not ?v_74)) (?v_87 (not ?v_71)) (?v_91 (not P3)) (?v_138 (not ?v_82)) (?v_89 (not ?v_70)) (?v_114 (not ?v_93)) (?v_147 (not ?v_19)) (?v_144 (not ?v_105)) (?v_106 (not ?v_76)) (?v_131 (not ?v_119)) (?v_96 (not P18)) (?v_134 (not ?v_34)) (?v_135 (not P20)) (?v_102 (not ?v_68)) (?v_145 (not P25)) (?v_146 (not P1)) (?v_130 (not P22)) (?v_124 (not P4)) (?v_137 (not ?v_57)) (?v_143 (not ?v_9)) (?v_132 (not P27)) (?v_140 (not ?v_101)) (?v_151 (not ?v_104)) (?v_152 (not P28)) (?v_58 (< (- (* 6 x6) (* 34 x17)) 0)) (?v_88 (= (+ (* 36 x22) (* 19 x13) (* 21 x10)) 28))) (let ((?v_35 (not ?v_88)) (?v_109 (<= (- (* 7 x15) (* 11 x4)) 22)) (?v_139 (not ?v_58))) (let ((?v_121 (not ?v_109)) (?v_150 (or ?v_151 ?v_88)) (?v_27 (= (- (- (* (- 2) x23) (* 41 x16)) (* 6 x4)) 32)) (?v_1 (<= (- (+ (* (- 9) x0) (* 19 x23)) (* 36 x29)) (- 4))) (?v_14 (<= (- (- (* 40 x18) (* 5 x14)) (* 33 x28)) (- 15)))) (let ((?v_136 (not ?v_14)) (?v_6 (<= (- (- (* (- 10) x11) 0) (* 2 x1)) 29)) (?v_47 (<= (- (* 30 x11) (* 40 x7)) (- 34))) (?v_51 (< (- (- (* (- 16) x10) (* 9 x22)) (* 13 x15)) (- 18)))) (let ((?v_38 (not ?v_51)) (?v_10 (distinct (- (* 4 x27) 0) (- 12))) (?v_21 (< (+ (- (* 20 x1) (* 29 x25)) (* 38 x13)) (- 23)))) (let ((?v_99 (not ?v_21)) (?v_5 (<= (- (- (* (- 13) x11) (* 8 x19)) x26) (- 12))) (?v_25 (<= (- (- (* 15 x15) (* 32 x29)) (* 16 x5)) (- 41)))) (let ((?v_8 (not ?v_5)) (?v_33 (not ?v_6)) (?v_53 (<= (+ (* 12 x1) (* 7 x23) (* 10 x16)) (- 18))) (?v_125 (distinct (+ (- (* (- 10) x1) (* 17 x16)) (* 8 x7)) 41))) (let ((?v_42 (not ?v_125)) (?v_24 (< (+ (* (- 39) x4) (* 7 x29) (* 22 x22)) 44))) (let ((?v_11 (not ?v_24)) (?v_28 (not ?v_10)) (?v_126 (< (+ (- (* 29 x4) (* 24 x15)) ?v_13) (- 35)))) (let ((?v_54 (not ?v_126)) (?v_45 (<= (- (+ (* (- 15) x27) (* 16 x24)) (* 42 x13)) (- 21)))) (let ((?v_49 (not ?v_45)) (?v_32 (distinct (- (- (* (- 16) x1) (* 8 x22)) ?v_26) (- 21))) (?v_117 (< (+ (- (* (- 37) x1) (* 10 x1)) (* 35 x25)) (- 12)))) (let ((?v_56 (not ?v_117)) (?v_46 (distinct (+ (- (* (- 1) x29) (* 41 x13)) ?v_26) (- 41)))) (let ((?v_97 (not ?v_46)) (?v_73 (not ?v_27)) (?v_83 (< (- (+ (* 9 x28) (* 9 x26)) (* 34 x21)) (- 20))) (?v_40 (< (+ (- (* (- 42) x16) (* 21 x25)) (* 39 x18)) (- 13)))) (let ((?v_110 (not ?v_40)) (?v_63 (not ?v_47)) (?v_103 (not ?v_53)) (?v_69 (distinct (+ (* (- 34) x26) x10 (* 26 x19)) 17)) (?v_78 (not ?v_25))) (let ((?v_157 (not ?v_69)) (?v_129 (< (- (+ (* 31 x26) (* 36 x6)) (* 4 x2)) (- 12)))) (let ((?v_94 (not ?v_129)) (?v_108 (< (+ (* (- 40) x3) (* 3 x17)) (- 23)))) (let ((?v_112 (not ?v_108)) (?v_95 (<= (+ (- (* (- 27) x11) (* 39 x2)) (* 32 x15)) 8)) (?v_141 (< (+ (- (* (- 20) x18) (* 13 x21)) (* 16 x1)) (- 4)))) (let ((?v_100 (not ?v_141)) (?v_116 (not ?v_83)) (?v_128 (not ?v_95)) (?v_153 (not ?v_32)) (?v_142 (not ?v_1)) (?v_154 (or ?v_55 ?v_10)) (?v_156 (or ?v_97 P3))) (and (and (and (and (and (and (and (and (and (and (and (and (and (and (and (and (and (and (and (and (and (and (and (and (and (and (and (and (and (and (and (and (and (and (and (and (and (and (and (and (and (and (and (and (and (and (and (and (and (and (and (and (and (and (and (and (and (and (and (and (and (and (and (and (and (and (and (and (and (and (and (and (and (and (and (and (and (and (and (and (and (and (and (and (and (and (and (and (and (and (and (and (and (and (and (and (and (and (and (and (and (and (and (and (and (and (and (and (and (and (and (and (and (and (and (and (and (and (and (and (and (and (and (and (and (and (and (and (and (and (and (and (and (and (and (and (and (and (and (and (and (and (and (and (and (and (and (and (and (and (and (and (and (and (and (and (and (and (and (and (and (and (and (and (and (and (and (and (and (and (and (and (and (and (and (and (and (and (and (and (and (and (and (and (and (and (and (and (and (and (and (and (and (and (and (and (and (and (and (and (and (and (and (and (and (and (and (and (and (and (and (and (and (and (and (and (and (and (and (and (and (and (and (and (and (and (and (and (and (and (and (and (and (and (and (and (and (and (and (and (and (and (and (and (and (and (and (and (and (and (and (and (and (and (and (and (and (and (and (and (and (and (and (and (and (and (and (and (and (and (and (and (and (and (and (and (and (and (and (and (and (and (and (and (and (and (and (and (and (and (and (and (and (and (and (and (and (and (and (and (and (and (and (and (and (and (and (and (and (and (and (and (and (and (and (and (and (and (and (and (and (and (and (and (and (and (and (and (and (and (and (and (and (and (and (and (and (and (and (and (and (and (and (and (and (and (and (and (and (and (and (and (and (and (and (and (and (and (and (or (or ?v_27 P21) ?v_48) (or (or ?v_107 ?v_1) P1)) (or (or ?v_72 ?v_2) ?v_84)) (or (or P2 ?v_12) ?v_4)) (or (or ?v_7 ?v_50) ?v_34)) (or (or P19 ?v_149) P4)) (or (or ?v_136 ?v_6) ?v_57)) (or (or ?v_3 ?v_85) P20)) (or (or ?v_47 ?v_31) ?v_1)) (or (or ?v_2 P14) ?v_68)) (or (or ?v_16 ?v_3) ?v_52)) (or (or ?v_43 ?v_38) ?v_10)) (or (or ?v_99 ?v_19) P28)) (or (or ?v_5 ?v_25) ?v_39)) (or (or P18 ?v_8) ?v_33)) (or (or ?v_66 P3) ?v_80)) (or (or ?v_53 ?v_115) ?v_42)) (or (or P4 P2) ?v_8)) (or (or ?v_75 ?v_9) ?v_58)) (or (or ?v_2 ?v_11) ?v_104)) (or (or ?v_9 P9) ?v_28)) (or (or ?v_11 ?v_79) ?v_5)) (or (or ?v_18 ?v_10) ?v_54)) (or (or ?v_14 ?v_15) ?v_81)) (or (or ?v_15 ?v_49) ?v_32)) (or (or ?v_10 ?v_5) ?v_16)) (or (or ?v_70 ?v_17) ?v_4)) (or (or ?v_18 ?v_19) ?v_36)) (or (or P16 ?v_23) ?v_21)) (or (or ?v_76 ?v_23) ?v_24)) (or (or P11 ?v_111) ?v_56)) (or (or ?v_44 P26) ?v_25)) (or (or ?v_97 ?v_73) ?v_6)) (or (or ?v_35 P13) ?v_120)) (or (or ?v_28 ?v_123) ?v_29)) (or (or ?v_83 P15) P19)) (or (or ?v_60 ?v_31) ?v_32)) (or (or ?v_2 P29) P6)) (or (or ?v_5 ?v_33) ?v_34)) (or (or ?v_35 ?v_21) ?v_36)) (or (or ?v_40 ?v_113) P19)) (or (or ?v_14 ?v_41) ?v_8)) (or (or ?v_38 ?v_39) ?v_110)) (or (or ?v_10 ?v_64) P18)) (or (or ?v_55 ?v_42) ?v_43)) (or (or ?v_44 ?v_62) ?v_2)) (or (or ?v_1 ?v_45) ?v_32)) (or (or ?v_86 P20) ?v_46)) (or (or P25 P26) ?v_7)) (or (or ?v_63 ?v_48) ?v_49)) (or (or ?v_50 P8) P28)) (or (or P7 P1) P19)) (or (or P16 ?v_51) P22)) (or (or ?v_67 ?v_52) ?v_103)) (or (or P28 ?v_54) P17)) (or (or ?v_55 ?v_56) ?v_57)) (or (or ?v_58 P4) ?v_77)) (or (or ?v_59 ?v_60) ?v_65)) (or (or ?v_18 ?v_61) ?v_133)) (or (or ?v_98 ?v_1) ?v_60)) (or (or ?v_127 P23) ?v_63)) (or (or ?v_39 ?v_64) ?v_65)) (or (or ?v_66 P20) ?v_69)) (or (or P10 ?v_27) ?v_87)) (or (or ?v_91 P17) ?v_138)) (or (or P0 ?v_67) ?v_28)) (or (or ?v_68 P8) P23)) (or (or ?v_24 ?v_69) ?v_89)) (or (or ?v_71 ?v_29) ?v_78)) (or (or ?v_72 P22) ?v_114)) (or (or P14 ?v_73) ?v_51)) (or (or ?v_57 P8) P5)) (or (or ?v_56 P18) ?v_65)) (or (or ?v_74 ?v_10) ?v_75)) (or (or P18 ?v_147) ?v_157)) (or (or ?v_144 ?v_43) P2)) (or (or ?v_38 ?v_106) ?v_68)) (or (or ?v_109 ?v_35) ?v_53)) (or (or ?v_4 ?v_70) ?v_77)) (or (or ?v_131 ?v_64) P8)) (or (or ?v_76 ?v_96) ?v_94)) (or (or ?v_78 ?v_35) ?v_60)) (or (or ?v_79 ?v_48) ?v_101)) (or (or P9 (not P29)) ?v_78)) (or (or ?v_17 ?v_68) ?v_67)) (or (or ?v_80 P23) ?v_81)) (or (or ?v_1 ?v_5) P7)) (or (or ?v_7 ?v_59) ?v_82)) (or (or ?v_112 ?v_57) ?v_9)) (or (or ?v_83 ?v_57) ?v_62)) (or (or ?v_31 ?v_45) ?v_83)) (or (or ?v_64 P23) ?v_25)) (or (or ?v_84 ?v_44) ?v_24)) (or (or P1 ?v_134) ?v_49)) (or (or ?v_72 ?v_53) ?v_12)) (or (or P26 ?v_61) ?v_60)) (or (or ?v_95 P11) ?v_64)) (or (or ?v_47 ?v_42) ?v_135)) (or (or ?v_82 ?v_85) P5)) (or (or ?v_102 ?v_86) ?v_87)) (or (or ?v_100 ?v_63) ?v_88)) (or (or ?v_89 ?v_90) ?v_91)) (or (or ?v_92 P23) ?v_17)) (or (or ?v_73 ?v_31) ?v_93)) (or (or ?v_59 ?v_116) ?v_62)) (or (or ?v_93 ?v_94) ?v_51)) (or (or ?v_51 ?v_128) P14)) (or (or ?v_145 ?v_93) P4)) (or (or ?v_96 ?v_64) ?v_97)) (or (or ?v_67 ?v_8) ?v_139)) (or (or ?v_69 ?v_58) ?v_75)) (or (or ?v_74 ?v_146) ?v_85)) (or (or ?v_98 ?v_99) ?v_58)) (or (or P6 ?v_29) ?v_86)) (or (or ?v_57 ?v_130) ?v_100)) (or (or ?v_77 P6) ?v_99)) (or (or ?v_101 ?v_102) ?v_103)) (or (or P8 ?v_71) P22)) (or (or P27 P9) P22)) (or (or ?v_91 ?v_49) ?v_11)) (or (or P17 ?v_124) ?v_23)) (or (or ?v_104 ?v_77) P19)) (or (or ?v_105 P24) P23)) (or (or ?v_17 P27) ?v_106)) (or (or ?v_73 ?v_19) ?v_3)) (or (or P27 ?v_41) ?v_100)) (or (or ?v_28 ?v_25) ?v_97)) (or (or ?v_66 ?v_104) ?v_23)) (or (or ?v_107 P24) ?v_108)) (or (or ?v_121 ?v_9) ?v_95)) (or (or ?v_18 ?v_72) ?v_110)) (or (or ?v_29 ?v_44) ?v_111)) (or (or ?v_107 ?v_88) ?v_49)) (or (or ?v_112 P17) P14)) (or (or P5 P2) ?v_82)) (or (or ?v_101 ?v_63) ?v_99)) (or (or ?v_44 ?v_75) P14)) (or (or ?v_55 ?v_113) P1)) (or (or ?v_90 ?v_56) ?v_114)) (or (or ?v_46 ?v_137) ?v_112)) (or (or ?v_23 ?v_84) ?v_42)) (or (or ?v_109 ?v_53) ?v_4)) (or (or P4 ?v_100) ?v_115)) (or (or ?v_108 ?v_72) ?v_153)) (or (or ?v_12 ?v_82) ?v_116)) (or (or ?v_12 ?v_107) ?v_113)) (or (or ?v_117 ?v_102) ?v_118)) (or (or ?v_119 ?v_117) P1)) (or (or ?v_7 ?v_77) ?v_68)) (or (or ?v_109 ?v_97) ?v_120)) (or (or ?v_142 ?v_1) ?v_121)) (or (or ?v_82 ?v_122) ?v_16)) (or (or ?v_74 P16) ?v_3)) (or (or P28 ?v_17) ?v_15)) (or (or ?v_89 ?v_39) ?v_15)) (or (or ?v_33 ?v_116) ?v_94)) (or (or ?v_53 ?v_123) P12)) (or (or P22 ?v_21) ?v_124)) (or (or ?v_25 ?v_97) ?v_103)) (or (or ?v_43 ?v_125) ?v_126)) (or (or ?v_61 ?v_16) P18)) (or (or ?v_9 ?v_77) ?v_111)) (or (or ?v_21 ?v_25) ?v_14)) (or (or P6 P29) ?v_67)) (or (or ?v_44 ?v_93) ?v_68)) (or (or ?v_34 P8) ?v_74)) (or (or ?v_81 ?v_127) ?v_32)) (or (or ?v_128 ?v_127) ?v_59)) (or (or ?v_1 ?v_143) ?v_132)) (or (or ?v_106 ?v_90) ?v_129)) (or (or ?v_16 ?v_130) ?v_29)) (or (or ?v_11 ?v_131) ?v_132)) (or (or ?v_112 ?v_59) ?v_133)) (or (or ?v_6 ?v_133) ?v_93)) (or (or ?v_32 ?v_79) ?v_43)) (or (or ?v_38 ?v_117) ?v_62)) (or (or ?v_31 ?v_44) ?v_80)) (or (or P3 ?v_73) ?v_35)) (or (or ?v_11 ?v_104) ?v_126)) (or (or ?v_57 ?v_109) ?v_130)) (or (or ?v_132 ?v_64) ?v_84)) (or (or ?v_98 ?v_6) ?v_36)) (or (or ?v_7 ?v_90) P19)) (or (or ?v_28 ?v_109) ?v_53)) (or (or ?v_127 ?v_62) ?v_92)) (or (or ?v_95 P1) P7)) (or (or ?v_120 ?v_66) ?v_47)) (or (or ?v_134 ?v_65) ?v_119)) (or (or ?v_89 ?v_104) P8)) (or (or ?v_8 P11) ?v_128)) (or (or ?v_23 ?v_78) ?v_92)) (or (or ?v_62 ?v_106) ?v_89)) (or (or ?v_126 ?v_15) ?v_135)) (or ?v_154 P27)) (or (or P16 ?v_98) ?v_7)) (or (or ?v_120 ?v_79) ?v_33)) (or (or ?v_126 P18) ?v_1)) (or (or P28 ?v_136) ?v_120)) (or (or P15 ?v_95) ?v_10)) (or (or P5 (not ?v_123)) ?v_140)) (or (or ?v_68 ?v_24) P6)) (or (or P5 ?v_137) ?v_128)) (or (or ?v_109 ?v_120) P17)) (or (or P18 ?v_89) ?v_126)) (or (or ?v_79 P24) ?v_12)) (or (or P21 ?v_129) P2)) (or (or ?v_138 ?v_139) ?v_38)) (or (or P15 P25) ?v_135)) (or (or ?v_44 ?v_85) P26)) (or (or ?v_140 ?v_141) ?v_73)) (or (or ?v_33 ?v_54) P2)) (or (or ?v_72 P4) ?v_114)) (or ?v_150 ?v_118)) (or (or ?v_116 ?v_141) ?v_75)) (or (or ?v_71 ?v_61) ?v_109)) (or (or ?v_108 ?v_89) ?v_141)) (or (or ?v_118 ?v_107) ?v_127)) (or (or ?v_142 ?v_143) ?v_48)) (or (or ?v_48 ?v_14) ?v_45)) (or (or ?v_40 ?v_133) ?v_55)) (or (or ?v_140 ?v_144) P1)) (or (or ?v_5 ?v_32) ?v_102)) (or (or ?v_56 ?v_137) ?v_97)) (or (or ?v_82 ?v_48) ?v_89)) (or (or P11 ?v_82) ?v_108)) (or (or ?v_62 ?v_135) ?v_89)) (or (or P0 ?v_33) P12)) (or (or ?v_124 ?v_138) ?v_97)) (or (or ?v_122 P25) ?v_67)) (or (or ?v_90 ?v_89) ?v_45)) (or (or ?v_71 P16) ?v_57)) (or (or ?v_38 ?v_59) P7)) (or (or ?v_16 ?v_40) ?v_41)) (or (or ?v_116 ?v_41) ?v_129)) (or (or ?v_61 ?v_124) ?v_14)) (or (or ?v_124 ?v_38) ?v_99)) (or (or P25 ?v_117) ?v_28)) (or (or ?v_11 ?v_3) P20)) (or (or ?v_12 ?v_141) ?v_74)) (or (or ?v_141 ?v_43) P12)) (or (or P22 ?v_54) ?v_62)) (or (or P8 P27) ?v_81)) (or (or P24 ?v_100) ?v_93)) (or (or ?v_137 ?v_6) P17)) (or (or ?v_57 ?v_56) ?v_42)) (or (or ?v_144 ?v_137) ?v_104)) (or (or ?v_122 ?v_12) P27)) (or (or ?v_116 ?v_116) ?v_68)) (or (or ?v_47 ?v_16) ?v_107)) (or (or ?v_21 ?v_124) ?v_152)) (or (or ?v_105 ?v_70) P25)) (or (or P14 ?v_105) ?v_68)) (or (or ?v_17 ?v_145) ?v_117)) (or (or ?v_12 ?v_137) ?v_75)) (or (or ?v_64 ?v_35) ?v_41)) (or (or ?v_88 ?v_97) ?v_1)) (or (or ?v_73 ?v_41) ?v_38)) (or (or ?v_75 P13) ?v_12)) (or (or ?v_77 ?v_146) ?v_100)) (or (or ?v_117 P27) ?v_86)) (or (or ?v_33 ?v_8) P22)) (or (or ?v_133 ?v_71) P20)) (or (or P7 ?v_130) ?v_8)) (or (or ?v_44 ?v_71) ?v_41)) (or (or ?v_15 ?v_54) ?v_60)) (or (or ?v_16 ?v_63) ?v_50)) (or (or ?v_147 ?v_55) ?v_116)) (or (or ?v_148 P5) ?v_6)) (or (or ?v_135 ?v_97) ?v_112)) (or (or P5 ?v_145) ?v_132)) (or (or ?v_61 ?v_113) ?v_118)) (or (or ?v_115 ?v_66) ?v_61)) (or (or ?v_100 ?v_10) ?v_110)) (or (or ?v_41 ?v_149) P6)) (or (or ?v_113 P23) ?v_128)) (or (or P17 P8) ?v_14)) (or (or ?v_149 ?v_96) ?v_25)) (or (or ?v_123 ?v_49) ?v_17)) (or (or ?v_87 ?v_139) ?v_65)) (or (or ?v_49 ?v_8) ?v_56)) (or (or ?v_46 ?v_82) ?v_69)) (or (or P3 ?v_90) ?v_138)) (or ?v_150 P1)) (or (or ?v_93 ?v_70) ?v_137)) (or (or ?v_17 ?v_65) ?v_134)) (or (or ?v_113 ?v_61) P9)) (or ?v_156 ?v_53)) (or (or ?v_135 ?v_38) ?v_151)) (or (or P19 ?v_131) ?v_33)) (or (or ?v_50 ?v_50) ?v_151)) (or (or ?v_151 ?v_66) P8)) (or (or ?v_133 ?v_78) ?v_4)) (or (or ?v_152 ?v_74) ?v_107)) (or (or ?v_50 ?v_142) P22)) (or (or ?v_114 ?v_5) ?v_153)) (or ?v_154 P1)) (or (or ?v_28 ?v_149) P11)) (or (or ?v_85 ?v_14) P19)) (or (or P12 ?v_152) ?v_12)) (or (or ?v_43 ?v_57) ?v_110)) (or (or ?v_24 ?v_25) ?v_62)) (or (or ?v_57 ?v_89) ?v_53)) (or (or P26 ?v_2) ?v_84)) (or (or ?v_147 ?v_103) ?v_81)) (or (or P21 ?v_113) ?v_146)) (or (or ?v_28 ?v_155) P12)) (or (or ?v_89 ?v_116) ?v_129)) (or (or ?v_51 ?v_68) ?v_62)) (or (or P5 ?v_128) ?v_52)) (or (or ?v_40 ?v_43) ?v_149)) (or (or ?v_47 ?v_12) ?v_75)) (or (or ?v_115 ?v_64) ?v_106)) (or (or ?v_77 P22) ?v_56)) (or (or ?v_85 ?v_155) ?v_82)) (or (or ?v_89 ?v_2) ?v_125)) (or (or P28 P3) P12)) (or (or ?v_11 ?v_28) ?v_45)) (or (or ?v_49 ?v_93) P13)) (or (or ?v_52 ?v_4) ?v_109)) (or (or ?v_135 ?v_67) ?v_23)) (or (or ?v_141 ?v_23) ?v_127)) (or (or ?v_106 ?v_75) P20)) (or (or ?v_122 ?v_54) P28)) (or (or P0 ?v_90) ?v_153)) (or (or P5 ?v_27) ?v_125)) (or (or P11 ?v_81) ?v_116)) (or (or ?v_82 ?v_139) ?v_14)) (or ?v_156 ?v_89)) (or (or ?v_88 ?v_67) ?v_142)) (or (or ?v_105 P6) ?v_23)) (or (or ?v_95 ?v_50) ?v_18)) (or (or ?v_67 P3) ?v_157)) (or (or ?v_29 ?v_106) ?v_130)) (or (or ?v_4 ?v_124) P23)) (or (or P14 ?v_18) ?v_17)) (or (or ?v_122 ?v_155) ?v_114)) (or (or ?v_60 ?v_67) ?v_148)) (or (or ?v_87 ?v_115) P5)) (or (or ?v_56 ?v_107) ?v_42)) (or (or ?v_38 ?v_132) ?v_42)) (or (or P9 ?v_141) ?v_131)) (or (or ?v_67 ?v_100) ?v_105)) (or (or ?v_108 ?v_110) ?v_33)) (or (or ?v_9 ?v_44) ?v_135)) (or (or ?v_41 ?v_51) ?v_31)) (or (or ?v_85 ?v_101) ?v_126)) (or (or ?v_109 ?v_67) ?v_126)) (or (or ?v_39 ?v_155) ?v_1)) (or (or ?v_138 ?v_29) ?v_85)) (or (or ?v_127 ?v_24) P8)) (or (or P0 ?v_27) ?v_76)) (or (or ?v_27 ?v_113) P14)) (or (or P7 ?v_7) P12)) (or (or ?v_117 ?v_16) ?v_108)) (or (or ?v_117 ?v_38) ?v_124)) (or (or ?v_31 P16) ?v_147)) (or (or ?v_153 ?v_145) ?v_41)) (or (or ?v_41 ?v_46) ?v_122)) (or (or ?v_31 P27) P22)) (or (or ?v_125 ?v_143) ?v_110))))))))))))))))))))))))))))
(check-sat)
(exit)
